p cnf 492 1374
1 -2 0
2 -1 0
3 4 0
5 4 0
6 4 0
7 4 0
8 4 0
9 4 0
10 4 0
11 4 0
12 4 0
13 4 0
14 4 0
15 4 0
-16 0
-17 4 -18 0
17 -4 -18 0
18 -4 -17 0
17 4 18 0
-18 0
5 19 0
6 19 0
7 19 0
8 19 0
9 19 0
10 19 0
11 19 0
12 19 0
13 19 0
14 19 0
15 19 0
-20 0
19 -21 -22 0
21 -19 -22 0
22 -19 -21 0
21 19 22 0
-22 0
6 23 0
7 23 0
8 23 0
9 23 0
10 23 0
11 23 0
12 23 0
13 23 0
14 23 0
15 23 0
-24 0
23 -25 -26 0
25 -23 -26 0
26 -23 -25 0
25 23 26 0
-26 0
7 27 0
8 27 0
9 27 0
10 27 0
11 27 0
12 27 0
13 27 0
14 27 0
15 27 0
-28 0
27 -29 -30 0
29 -27 -30 0
30 -27 -29 0
29 27 30 0
-30 0
8 31 0
9 31 0
10 31 0
11 31 0
12 31 0
13 31 0
14 31 0
15 31 0
-32 0
31 -33 -34 0
33 -31 -34 0
34 -31 -33 0
33 31 34 0
-34 0
9 35 0
10 35 0
11 35 0
12 35 0
13 35 0
14 35 0
15 35 0
-36 0
35 -37 -38 0
37 -35 -38 0
38 -35 -37 0
37 35 38 0
-38 0
35 -39 -40 0
39 -35 -40 0
40 -35 -39 0
39 35 40 0
-40 0
35 -41 -42 0
41 -35 -42 0
42 -35 -41 0
41 35 42 0
-42 0
35 -43 -44 0
43 -35 -44 0
44 -35 -43 0
43 35 44 0
-44 0
13 45 0
14 45 0
15 45 0
9 45 0
10 45 0
11 45 0
12 45 0
-46 0
45 -47 -48 0
47 -45 -48 0
48 -45 -47 0
47 45 48 0
-48 0
35 -49 -50 0
49 -35 -50 0
50 -35 -49 0
49 35 50 0
-50 0
35 -51 -52 0
51 -35 -52 0
52 -35 -51 0
51 35 52 0
-52 0
53 54 0
55 54 0
56 54 0
57 54 0
58 54 0
59 54 0
60 54 0
61 54 0
62 54 0
63 54 0
64 54 0
65 54 0
-66 0
-67 54 -68 0
67 -54 -68 0
68 -54 -67 0
67 54 68 0
-68 0
55 69 0
56 69 0
57 69 0
58 69 0
59 69 0
60 69 0
61 69 0
62 69 0
63 69 0
64 69 0
65 69 0
-70 0
69 -71 -72 0
71 -69 -72 0
72 -69 -71 0
71 69 72 0
-72 0
56 73 0
57 73 0
58 73 0
59 73 0
60 73 0
61 73 0
62 73 0
63 73 0
64 73 0
65 73 0
-74 0
73 -75 -76 0
75 -73 -76 0
76 -73 -75 0
75 73 76 0
-76 0
57 77 0
58 77 0
59 77 0
60 77 0
61 77 0
62 77 0
63 77 0
64 77 0
65 77 0
-78 0
77 -79 -80 0
79 -77 -80 0
80 -77 -79 0
79 77 80 0
-80 0
58 81 0
59 81 0
60 81 0
61 81 0
62 81 0
63 81 0
64 81 0
65 81 0
-82 0
81 -83 -84 0
83 -81 -84 0
84 -81 -83 0
83 81 84 0
-84 0
59 85 0
60 85 0
61 85 0
62 85 0
63 85 0
64 85 0
65 85 0
-86 0
85 -87 -88 0
87 -85 -88 0
88 -85 -87 0
87 85 88 0
-88 0
60 89 0
61 89 0
62 89 0
63 89 0
64 89 0
65 89 0
-90 0
89 -91 -92 0
91 -89 -92 0
92 -89 -91 0
91 89 92 0
-92 0
89 -93 -94 0
93 -89 -94 0
94 -89 -93 0
93 89 94 0
-94 0
89 -95 -96 0
95 -89 -96 0
96 -89 -95 0
95 89 96 0
-96 0
89 -97 -98 0
97 -89 -98 0
98 -89 -97 0
97 89 98 0
-98 0
89 -99 -100 0
99 -89 -100 0
100 -89 -99 0
99 89 100 0
-100 0
89 -101 -102 0
101 -89 -102 0
102 -89 -101 0
101 89 102 0
-102 0
103 104 0
105 104 0
106 104 0
107 104 0
108 104 0
109 104 0
110 104 0
111 104 0
112 104 0
113 104 0
114 104 0
115 104 0
-116 0
-117 104 -118 0
117 -104 -118 0
118 -104 -117 0
117 104 118 0
-118 0
105 119 0
106 119 0
107 119 0
108 119 0
109 119 0
110 119 0
111 119 0
112 119 0
113 119 0
114 119 0
115 119 0
-120 0
119 -121 -122 0
121 -119 -122 0
122 -119 -121 0
121 119 122 0
-122 0
106 123 0
107 123 0
108 123 0
109 123 0
110 123 0
111 123 0
112 123 0
113 123 0
114 123 0
115 123 0
-124 0
123 -125 -126 0
125 -123 -126 0
126 -123 -125 0
125 123 126 0
-126 0
107 127 0
108 127 0
109 127 0
110 127 0
111 127 0
112 127 0
113 127 0
114 127 0
115 127 0
-128 0
127 -129 -130 0
129 -127 -130 0
130 -127 -129 0
129 127 130 0
-130 0
108 131 0
109 131 0
110 131 0
111 131 0
112 131 0
113 131 0
114 131 0
115 131 0
-132 0
131 -133 -134 0
133 -131 -134 0
134 -131 -133 0
133 131 134 0
-134 0
131 -135 -136 0
135 -131 -136 0
136 -131 -135 0
135 131 136 0
-136 0
131 -137 -138 0
137 -131 -138 0
138 -131 -137 0
137 131 138 0
-138 0
131 -139 -140 0
139 -131 -140 0
140 -131 -139 0
139 131 140 0
-140 0
131 -141 -142 0
141 -131 -142 0
142 -131 -141 0
141 131 142 0
-142 0
131 -143 -144 0
143 -131 -144 0
144 -131 -143 0
143 131 144 0
-144 0
131 -145 -146 0
145 -131 -146 0
146 -131 -145 0
145 131 146 0
-146 0
131 -147 -148 0
147 -131 -148 0
148 -131 -147 0
147 131 148 0
-148 0
149 150 0
151 150 0
152 150 0
153 150 0
154 150 0
155 150 0
156 150 0
157 150 0
158 150 0
159 150 0
160 150 0
161 150 0
162 150 0
-163 0
-164 150 -165 0
164 -150 -165 0
165 -150 -164 0
164 150 165 0
-165 0
151 166 0
152 166 0
153 166 0
154 166 0
155 166 0
156 166 0
157 166 0
158 166 0
159 166 0
160 166 0
161 166 0
162 166 0
-167 0
166 -168 -169 0
168 -166 -169 0
169 -166 -168 0
168 166 169 0
-169 0
152 170 0
153 170 0
154 170 0
155 170 0
156 170 0
157 170 0
158 170 0
159 170 0
160 170 0
161 170 0
162 170 0
-171 0
170 -172 -173 0
172 -170 -173 0
173 -170 -172 0
172 170 173 0
-173 0
153 174 0
154 174 0
155 174 0
156 174 0
157 174 0
158 174 0
159 174 0
160 174 0
161 174 0
162 174 0
-175 0
174 -176 -177 0
176 -174 -177 0
177 -174 -176 0
176 174 177 0
-177 0
154 178 0
155 178 0
156 178 0
157 178 0
158 178 0
159 178 0
160 178 0
161 178 0
162 178 0
-179 0
178 -180 -181 0
180 -178 -181 0
181 -178 -180 0
180 178 181 0
-181 0
155 182 0
156 182 0
157 182 0
158 182 0
159 182 0
160 182 0
161 182 0
162 182 0
-183 0
182 -184 -185 0
184 -182 -185 0
185 -182 -184 0
184 182 185 0
-185 0
182 -186 -187 0
186 -182 -187 0
187 -182 -186 0
186 182 187 0
-187 0
182 -188 -189 0
188 -182 -189 0
189 -182 -188 0
188 182 189 0
-189 0
182 -190 -191 0
190 -182 -191 0
191 -182 -190 0
190 182 191 0
-191 0
182 -192 -193 0
192 -182 -193 0
193 -182 -192 0
192 182 193 0
-193 0
182 -194 -195 0
194 -182 -195 0
195 -182 -194 0
194 182 195 0
-195 0
182 -196 -197 0
196 -182 -197 0
197 -182 -196 0
196 182 197 0
-197 0
182 -198 -199 0
198 -182 -199 0
199 -182 -198 0
198 182 199 0
-199 0
108 200 0
109 200 0
110 200 0
111 200 0
112 200 0
113 200 0
114 200 0
115 200 0
201 200 0
202 200 0
203 200 0
204 200 0
205 200 0
206 200 0
-207 0
-208 200 -209 0
208 -200 -209 0
209 -200 -208 0
208 200 209 0
-209 0
108 210 0
109 210 0
110 210 0
111 210 0
112 210 0
113 210 0
114 210 0
115 210 0
202 210 0
203 210 0
204 210 0
205 210 0
206 210 0
-211 0
210 -212 -213 0
212 -210 -213 0
213 -210 -212 0
212 210 213 0
-213 0
108 214 0
109 214 0
110 214 0
111 214 0
112 214 0
113 214 0
114 214 0
115 214 0
203 214 0
204 214 0
205 214 0
206 214 0
-215 0
214 -216 -217 0
216 -214 -217 0
217 -214 -216 0
216 214 217 0
-217 0
108 218 0
109 218 0
110 218 0
111 218 0
112 218 0
113 218 0
114 218 0
115 218 0
204 218 0
205 218 0
206 218 0
-219 0
218 -220 -221 0
220 -218 -221 0
221 -218 -220 0
220 218 221 0
-221 0
108 222 0
109 222 0
110 222 0
111 222 0
112 222 0
113 222 0
114 222 0
115 222 0
205 222 0
206 222 0
-223 0
222 -224 -225 0
224 -222 -225 0
225 -222 -224 0
224 222 225 0
-225 0
108 226 0
109 226 0
110 226 0
111 226 0
112 226 0
113 226 0
114 226 0
115 226 0
206 226 0
-227 0
226 -228 -229 0
228 -226 -229 0
229 -226 -228 0
228 226 229 0
-229 0
230 231 0
232 231 0
233 231 0
234 231 0
235 231 0
236 231 0
237 231 0
238 231 0
239 231 0
240 231 0
241 231 0
242 231 0
243 231 0
244 231 0
-245 0
-246 231 -247 0
246 -231 -247 0
247 -231 -246 0
246 231 247 0
-247 0
232 248 0
233 248 0
234 248 0
235 248 0
236 248 0
237 248 0
238 248 0
239 248 0
240 248 0
241 248 0
242 248 0
243 248 0
244 248 0
-249 0
248 -250 -251 0
250 -248 -251 0
251 -248 -250 0
250 248 251 0
-251 0
233 252 0
234 252 0
235 252 0
236 252 0
237 252 0
238 252 0
239 252 0
240 252 0
241 252 0
242 252 0
243 252 0
244 252 0
-253 0
252 -254 -255 0
254 -252 -255 0
255 -252 -254 0
254 252 255 0
-255 0
234 256 0
235 256 0
236 256 0
237 256 0
238 256 0
239 256 0
240 256 0
241 256 0
242 256 0
243 256 0
244 256 0
-257 0
256 -258 -259 0
258 -256 -259 0
259 -256 -258 0
258 256 259 0
-259 0
235 260 0
236 260 0
237 260 0
238 260 0
239 260 0
240 260 0
241 260 0
242 260 0
243 260 0
244 260 0
-261 0
260 -262 -263 0
262 -260 -263 0
263 -260 -262 0
262 260 263 0
-263 0
236 264 0
237 264 0
238 264 0
239 264 0
240 264 0
241 264 0
242 264 0
243 264 0
244 264 0
-265 0
264 -266 -267 0
266 -264 -267 0
267 -264 -266 0
266 264 267 0
-267 0
237 268 0
238 268 0
239 268 0
240 268 0
241 268 0
242 268 0
243 268 0
244 268 0
-269 0
268 -270 -271 0
270 -268 -271 0
271 -268 -270 0
270 268 271 0
-271 0
268 -272 -273 0
272 -268 -273 0
273 -268 -272 0
272 268 273 0
-273 0
268 -274 -275 0
274 -268 -275 0
275 -268 -274 0
274 268 275 0
-275 0
268 -276 -277 0
276 -268 -277 0
277 -268 -276 0
276 268 277 0
-277 0
268 -278 -279 0
278 -268 -279 0
279 -268 -278 0
278 268 279 0
-279 0
268 -280 -281 0
280 -268 -281 0
281 -268 -280 0
280 268 281 0
-281 0
268 -282 -283 0
282 -268 -283 0
283 -268 -282 0
282 268 283 0
-283 0
268 -284 -285 0
284 -268 -285 0
285 -268 -284 0
284 268 285 0
-285 0
286 287 0
288 287 0
289 287 0
290 287 0
291 287 0
292 287 0
293 287 0
294 287 0
295 287 0
296 287 0
297 287 0
298 287 0
299 287 0
-300 0
-301 287 -302 0
301 -287 -302 0
302 -287 -301 0
301 287 302 0
-302 0
288 303 0
289 303 0
290 303 0
291 303 0
292 303 0
293 303 0
294 303 0
295 303 0
296 303 0
297 303 0
298 303 0
299 303 0
-304 0
303 -305 -306 0
305 -303 -306 0
306 -303 -305 0
305 303 306 0
-306 0
289 307 0
290 307 0
291 307 0
292 307 0
293 307 0
294 307 0
295 307 0
296 307 0
297 307 0
298 307 0
299 307 0
-308 0
307 -309 -310 0
309 -307 -310 0
310 -307 -309 0
309 307 310 0
-310 0
290 311 0
291 311 0
292 311 0
293 311 0
294 311 0
295 311 0
296 311 0
297 311 0
298 311 0
299 311 0
-312 0
311 -313 -314 0
313 -311 -314 0
314 -311 -313 0
313 311 314 0
-314 0
291 315 0
292 315 0
293 315 0
294 315 0
295 315 0
296 315 0
297 315 0
298 315 0
299 315 0
-316 0
315 -317 -318 0
317 -315 -318 0
318 -315 -317 0
317 315 318 0
-318 0
292 319 0
293 319 0
294 319 0
295 319 0
296 319 0
297 319 0
298 319 0
299 319 0
-320 0
319 -321 -322 0
321 -319 -322 0
322 -319 -321 0
321 319 322 0
-322 0
293 323 0
294 323 0
295 323 0
296 323 0
297 323 0
298 323 0
299 323 0
-324 0
323 -325 -326 0
325 -323 -326 0
326 -323 -325 0
325 323 326 0
-326 0
294 327 0
295 327 0
296 327 0
297 327 0
298 327 0
299 327 0
-328 0
327 -329 -330 0
329 -327 -330 0
330 -327 -329 0
329 327 330 0
-330 0
327 -331 -332 0
331 -327 -332 0
332 -327 -331 0
331 327 332 0
-332 0
327 -333 -334 0
333 -327 -334 0
334 -327 -333 0
333 327 334 0
-334 0
327 -335 -336 0
335 -327 -336 0
336 -327 -335 0
335 327 336 0
-336 0
327 -337 -338 0
337 -327 -338 0
338 -327 -337 0
337 327 338 0
-338 0
327 -339 -340 0
339 -327 -340 0
340 -327 -339 0
339 327 340 0
-340 0
341 342 0
343 342 0
344 342 0
345 342 0
346 342 0
347 342 0
348 342 0
349 342 0
350 342 0
351 342 0
352 342 0
353 342 0
354 342 0
355 342 0
356 342 0
-357 0
-358 342 -359 0
358 -342 -359 0
359 -342 -358 0
358 342 359 0
-359 0
343 360 0
344 360 0
345 360 0
346 360 0
347 360 0
348 360 0
349 360 0
350 360 0
351 360 0
352 360 0
353 360 0
354 360 0
355 360 0
356 360 0
-361 0
360 -362 -363 0
362 -360 -363 0
363 -360 -362 0
362 360 363 0
-363 0
344 364 0
345 364 0
346 364 0
347 364 0
348 364 0
349 364 0
350 364 0
351 364 0
352 364 0
353 364 0
354 364 0
355 364 0
356 364 0
-365 0
364 -366 -367 0
366 -364 -367 0
367 -364 -366 0
366 364 367 0
-367 0
345 368 0
346 368 0
347 368 0
348 368 0
349 368 0
350 368 0
351 368 0
352 368 0
353 368 0
354 368 0
355 368 0
356 368 0
-369 0
368 -370 -371 0
370 -368 -371 0
371 -368 -370 0
370 368 371 0
-371 0
346 372 0
347 372 0
348 372 0
349 372 0
350 372 0
351 372 0
352 372 0
353 372 0
354 372 0
355 372 0
356 372 0
-373 0
372 -374 -375 0
374 -372 -375 0
375 -372 -374 0
374 372 375 0
-375 0
347 376 0
348 376 0
349 376 0
350 376 0
351 376 0
352 376 0
353 376 0
354 376 0
355 376 0
356 376 0
-377 0
376 -378 -379 0
378 -376 -379 0
379 -376 -378 0
378 376 379 0
-379 0
348 380 0
349 380 0
350 380 0
351 380 0
352 380 0
353 380 0
354 380 0
355 380 0
356 380 0
-381 0
380 -382 -383 0
382 -380 -383 0
383 -380 -382 0
382 380 383 0
-383 0
349 384 0
350 384 0
351 384 0
352 384 0
353 384 0
354 384 0
355 384 0
356 384 0
-385 0
384 -386 -387 0
386 -384 -387 0
387 -384 -386 0
386 384 387 0
-387 0
384 -388 -389 0
388 -384 -389 0
389 -384 -388 0
388 384 389 0
-389 0
384 -390 -391 0
390 -384 -391 0
391 -384 -390 0
390 384 391 0
-391 0
384 -392 -393 0
392 -384 -393 0
393 -384 -392 0
392 384 393 0
-393 0
384 -394 -395 0
394 -384 -395 0
395 -384 -394 0
394 384 395 0
-395 0
384 -396 -397 0
396 -384 -397 0
397 -384 -396 0
396 384 397 0
-397 0
384 -398 -399 0
398 -384 -399 0
399 -384 -398 0
398 384 399 0
-399 0
384 -400 -401 0
400 -384 -401 0
401 -384 -400 0
400 384 401 0
-401 0
294 402 0
295 402 0
296 402 0
297 402 0
298 402 0
299 402 0
403 402 0
404 402 0
405 402 0
406 402 0
407 402 0
408 402 0
-409 0
-410 402 -411 0
410 -402 -411 0
411 -402 -410 0
410 402 411 0
-411 0
294 412 0
295 412 0
296 412 0
297 412 0
298 412 0
299 412 0
404 412 0
405 412 0
406 412 0
407 412 0
408 412 0
-413 0
412 -414 -415 0
414 -412 -415 0
415 -412 -414 0
414 412 415 0
-415 0
294 416 0
295 416 0
296 416 0
297 416 0
298 416 0
299 416 0
405 416 0
406 416 0
407 416 0
408 416 0
-417 0
416 -418 -419 0
418 -416 -419 0
419 -416 -418 0
418 416 419 0
-419 0
294 420 0
295 420 0
296 420 0
297 420 0
298 420 0
299 420 0
406 420 0
407 420 0
408 420 0
-421 0
420 -422 -423 0
422 -420 -423 0
423 -420 -422 0
422 420 423 0
-423 0
294 424 0
295 424 0
296 424 0
297 424 0
298 424 0
299 424 0
407 424 0
408 424 0
-425 0
424 -426 -427 0
426 -424 -427 0
427 -424 -426 0
426 424 427 0
-427 0
294 428 0
295 428 0
296 428 0
297 428 0
298 428 0
299 428 0
408 428 0
-429 0
428 -430 -431 0
430 -428 -431 0
431 -428 -430 0
430 428 431 0
-431 0
432 433 0
434 433 0
435 433 0
436 433 0
437 433 0
438 433 0
439 433 0
440 433 0
441 433 0
442 433 0
443 433 0
444 433 0
445 433 0
446 433 0
447 433 0
-448 0
-449 433 -450 0
449 -433 -450 0
450 -433 -449 0
449 433 450 0
-450 0
434 451 0
435 451 0
436 451 0
437 451 0
438 451 0
439 451 0
440 451 0
441 451 0
442 451 0
443 451 0
444 451 0
445 451 0
446 451 0
447 451 0
-452 0
451 -453 -454 0
453 -451 -454 0
454 -451 -453 0
453 451 454 0
-454 0
435 455 0
436 455 0
437 455 0
438 455 0
439 455 0
440 455 0
441 455 0
442 455 0
443 455 0
444 455 0
445 455 0
446 455 0
447 455 0
-456 0
455 -457 -458 0
457 -455 -458 0
458 -455 -457 0
457 455 458 0
-458 0
436 459 0
437 459 0
438 459 0
439 459 0
440 459 0
441 459 0
442 459 0
443 459 0
444 459 0
445 459 0
446 459 0
447 459 0
-460 0
459 -461 -462 0
461 -459 -462 0
462 -459 -461 0
461 459 462 0
-462 0
437 463 0
438 463 0
439 463 0
440 463 0
441 463 0
442 463 0
443 463 0
444 463 0
445 463 0
446 463 0
447 463 0
-464 0
463 -465 -466 0
465 -463 -466 0
466 -463 -465 0
465 463 466 0
-466 0
438 467 0
439 467 0
440 467 0
441 467 0
442 467 0
443 467 0
444 467 0
445 467 0
446 467 0
447 467 0
-468 0
467 -469 -470 0
469 -467 -470 0
470 -467 -469 0
469 467 470 0
-470 0
439 471 0
440 471 0
441 471 0
442 471 0
443 471 0
444 471 0
445 471 0
446 471 0
447 471 0
-472 0
471 -473 -474 0
473 -471 -474 0
474 -471 -473 0
473 471 474 0
-474 0
440 475 0
441 475 0
442 475 0
443 475 0
444 475 0
445 475 0
446 475 0
447 475 0
-476 0
475 -477 -478 0
477 -475 -478 0
478 -475 -477 0
477 475 478 0
-478 0
475 -479 -480 0
479 -475 -480 0
480 -475 -479 0
479 475 480 0
-480 0
475 -481 -482 0
481 -475 -482 0
482 -475 -481 0
481 475 482 0
-482 0
475 -483 -484 0
483 -475 -484 0
484 -475 -483 0
483 475 484 0
-484 0
475 -485 -486 0
485 -475 -486 0
486 -475 -485 0
485 475 486 0
-486 0
475 -487 -488 0
487 -475 -488 0
488 -475 -487 0
487 475 488 0
-488 0
475 -489 -490 0
489 -475 -490 0
490 -475 -489 0
489 475 490 0
-490 0
475 -491 -492 0
491 -475 -492 0
492 -475 -491 0
491 475 492 0
-492 0
1 0
-17 0
-67 0
-117 0
-164 0
-208 0
-246 0
-301 0
-358 0
-410 0
-449 0
